p cnf 200 1110
-101 20 0
-101 -32 0
-101 66 0
-101 -67 0
-101 11 0
-101 -30 0
-101 -60 0
-101 27 0
-101 12 0
-101 14 0
101 -20 32 -66 67 -11 30 60 -27 -12 -14 0
-102 -12 0
-102 -78 0
-102 44 0
-102 -50 0
-102 -77 0
-102 -5 0
-102 -58 0
-102 -55 0
-102 -87 0
-102 -3 0
102 12 78 -44 50 77 5 58 55 87 3 0
-103 76 0
-103 -81 0
-103 4 0
-103 -65 0
-103 69 0
-103 -67 0
-103 -37 0
-103 -90 0
-103 88 0
-103 -59 0
103 -76 81 -4 65 -69 67 37 90 -88 59 0
-104 13 0
-104 59 0
-104 -23 0
-104 -14 0
-104 -40 0
-104 47 0
-104 -89 0
-104 -21 0
-104 29 0
-104 96 0
104 -13 -59 23 14 40 -47 89 21 -29 -96 0
-105 -44 0
-105 -56 0
-105 -20 0
-105 32 0
-105 -95 0
-105 -47 0
-105 -53 0
-105 64 0
-105 65 0
-105 91 0
105 44 56 20 -32 95 47 53 -64 -65 -91 0
-106 -34 0
-106 7 0
-106 31 0
-106 -41 0
-106 40 0
-106 28 0
-106 45 0
-106 3 0
-106 -62 0
-106 -79 0
106 34 -7 -31 41 -40 -28 -45 -3 62 79 0
-107 25 0
-107 9 0
-107 -24 0
-107 -47 0
-107 -82 0
-107 32 0
-107 -17 0
-107 63 0
-107 -22 0
-107 -26 0
107 -25 -9 24 47 82 -32 17 -63 22 26 0
-108 -100 0
-108 -32 0
-108 -80 0
-108 95 0
-108 34 0
-108 -76 0
-108 38 0
-108 93 0
-108 -98 0
-108 -54 0
108 100 32 80 -95 -34 76 -38 -93 98 54 0
-109 28 0
-109 -77 0
-109 -84 0
-109 55 0
-109 90 0
-109 -7 0
-109 70 0
-109 89 0
-109 73 0
-109 53 0
109 -28 77 84 -55 -90 7 -70 -89 -73 -53 0
-110 -37 0
-110 71 0
-110 26 0
-110 -7 0
-110 68 0
-110 54 0
-110 81 0
-110 -60 0
-110 95 0
-110 -10 0
110 37 -71 -26 7 -68 -54 -81 60 -95 10 0
101 102 103 104 105 106 107 108 109 110 0
-111 -62 0
-111 83 0
-111 -65 0
-111 -98 0
-111 -51 0
-111 71 0
-111 21 0
-111 -76 0
-111 95 0
-111 9 0
111 62 -83 65 98 51 -71 -21 76 -95 -9 0
-112 13 0
-112 93 0
-112 -97 0
-112 98 0
-112 82 0
-112 7 0
-112 -32 0
-112 -22 0
-112 -47 0
-112 59 0
112 -13 -93 97 -98 -82 -7 32 22 47 -59 0
-113 91 0
-113 -100 0
-113 53 0
-113 41 0
-113 15 0
-113 -11 0
-113 25 0
-113 -81 0
-113 28 0
-113 90 0
113 -91 100 -53 -41 -15 11 -25 81 -28 -90 0
-114 5 0
-114 30 0
-114 91 0
-114 45 0
-114 -23 0
-114 14 0
-114 -41 0
-114 -13 0
-114 -7 0
-114 -75 0
114 -5 -30 -91 -45 23 -14 41 13 7 75 0
-115 90 0
-115 40 0
-115 -93 0
-115 7 0
-115 98 0
-115 -86 0
-115 -28 0
-115 68 0
-115 3 0
-115 -12 0
115 -90 -40 93 -7 -98 86 28 -68 -3 12 0
-116 -72 0
-116 -73 0
-116 -44 0
-116 92 0
-116 1 0
-116 -55 0
-116 -28 0
-116 -79 0
-116 52 0
-116 -64 0
116 72 73 44 -92 -1 55 28 79 -52 64 0
-117 56 0
-117 -17 0
-117 -40 0
-117 -43 0
-117 -80 0
-117 88 0
-117 71 0
-117 -69 0
-117 42 0
-117 13 0
117 -56 17 40 43 80 -88 -71 69 -42 -13 0
-118 4 0
-118 -84 0
-118 -41 0
-118 24 0
-118 -95 0
-118 -63 0
-118 -27 0
-118 -31 0
-118 -13 0
-118 -93 0
118 -4 84 41 -24 95 63 27 31 13 93 0
-119 -50 0
-119 35 0
-119 -95 0
-119 -45 0
-119 54 0
-119 -94 0
-119 22 0
-119 4 0
-119 -97 0
-119 -75 0
119 50 -35 95 45 -54 94 -22 -4 97 75 0
-120 86 0
-120 70 0
-120 25 0
-120 -81 0
-120 -62 0
-120 59 0
-120 5 0
-120 88 0
-120 -92 0
-120 -99 0
120 -86 -70 -25 81 62 -59 -5 -88 92 99 0
111 112 113 114 115 116 117 118 119 120 0
-121 -53 0
-121 12 0
-121 -67 0
-121 -83 0
-121 39 0
-121 81 0
-121 61 0
-121 -38 0
-121 -9 0
-121 36 0
121 53 -12 67 83 -39 -81 -61 38 9 -36 0
-122 53 0
-122 -81 0
-122 -46 0
-122 -69 0
-122 -3 0
-122 31 0
-122 93 0
-122 -73 0
-122 2 0
-122 41 0
122 -53 81 46 69 3 -31 -93 73 -2 -41 0
-123 78 0
-123 19 0
-123 85 0
-123 -53 0
-123 8 0
-123 -46 0
-123 -96 0
-123 62 0
-123 -5 0
-123 12 0
123 -78 -19 -85 53 -8 46 96 -62 5 -12 0
-124 -27 0
-124 1 0
-124 -23 0
-124 45 0
-124 -28 0
-124 -25 0
-124 -86 0
-124 56 0
-124 -17 0
-124 4 0
124 27 -1 23 -45 28 25 86 -56 17 -4 0
-125 -72 0
-125 -64 0
-125 -75 0
-125 83 0
-125 -35 0
-125 -68 0
-125 44 0
-125 37 0
-125 25 0
-125 23 0
125 72 64 75 -83 35 68 -44 -37 -25 -23 0
-126 22 0
-126 60 0
-126 58 0
-126 -64 0
-126 -49 0
-126 -98 0
-126 -44 0
-126 75 0
-126 -1 0
-126 85 0
126 -22 -60 -58 64 49 98 44 -75 1 -85 0
-127 74 0
-127 -17 0
-127 93 0
-127 -47 0
-127 -34 0
-127 96 0
-127 76 0
-127 -46 0
-127 -70 0
-127 92 0
127 -74 17 -93 47 34 -96 -76 46 70 -92 0
-128 -46 0
-128 -48 0
-128 -22 0
-128 -50 0
-128 -64 0
-128 8 0
-128 -80 0
-128 -72 0
-128 71 0
-128 -15 0
128 46 48 22 50 64 -8 80 72 -71 15 0
-129 -33 0
-129 -2 0
-129 -9 0
-129 11 0
-129 -59 0
-129 95 0
-129 24 0
-129 34 0
-129 93 0
-129 -57 0
129 33 2 9 -11 59 -95 -24 -34 -93 57 0
-130 92 0
-130 91 0
-130 3 0
-130 -84 0
-130 -69 0
-130 88 0
-130 96 0
-130 27 0
-130 -61 0
-130 66 0
130 -92 -91 -3 84 69 -88 -96 -27 61 -66 0
121 122 123 124 125 126 127 128 129 130 0
-131 76 0
-131 10 0
-131 -96 0
-131 -75 0
-131 70 0
-131 -28 0
-131 84 0
-131 30 0
-131 83 0
-131 36 0
131 -76 -10 96 75 -70 28 -84 -30 -83 -36 0
-132 -6 0
-132 -24 0
-132 -9 0
-132 27 0
-132 15 0
-132 -94 0
-132 -51 0
-132 -70 0
-132 68 0
-132 56 0
132 6 24 9 -27 -15 94 51 70 -68 -56 0
-133 68 0
-133 -42 0
-133 3 0
-133 66 0
-133 -98 0
-133 69 0
-133 -46 0
-133 56 0
-133 31 0
-133 -83 0
133 -68 42 -3 -66 98 -69 46 -56 -31 83 0
-134 53 0
-134 -54 0
-134 50 0
-134 -96 0
-134 44 0
-134 -20 0
-134 46 0
-134 -8 0
-134 -74 0
-134 58 0
134 -53 54 -50 96 -44 20 -46 8 74 -58 0
-135 -45 0
-135 -34 0
-135 74 0
-135 13 0
-135 -18 0
-135 51 0
-135 -78 0
-135 24 0
-135 -16 0
-135 81 0
135 45 34 -74 -13 18 -51 78 -24 16 -81 0
-136 -55 0
-136 -47 0
-136 64 0
-136 -29 0
-136 -94 0
-136 66 0
-136 46 0
-136 -63 0
-136 -1 0
-136 -59 0
136 55 47 -64 29 94 -66 -46 63 1 59 0
-137 92 0
-137 61 0
-137 -13 0
-137 -95 0
-137 68 0
-137 16 0
-137 -29 0
-137 20 0
-137 -2 0
-137 -33 0
137 -92 -61 13 95 -68 -16 29 -20 2 33 0
-138 -94 0
-138 2 0
-138 92 0
-138 36 0
-138 29 0
-138 89 0
-138 -96 0
-138 64 0
-138 -59 0
-138 40 0
138 94 -2 -92 -36 -29 -89 96 -64 59 -40 0
-139 -68 0
-139 -97 0
-139 -28 0
-139 45 0
-139 -81 0
-139 -56 0
-139 26 0
-139 42 0
-139 -38 0
-139 -98 0
139 68 97 28 -45 81 56 -26 -42 38 98 0
-140 26 0
-140 -52 0
-140 41 0
-140 -21 0
-140 40 0
-140 67 0
-140 -31 0
-140 76 0
-140 33 0
-140 48 0
140 -26 52 -41 21 -40 -67 31 -76 -33 -48 0
131 132 133 134 135 136 137 138 139 140 0
-141 -33 0
-141 45 0
-141 90 0
-141 -13 0
-141 32 0
-141 -26 0
-141 66 0
-141 -37 0
-141 19 0
-141 75 0
141 33 -45 -90 13 -32 26 -66 37 -19 -75 0
-142 11 0
-142 -85 0
-142 99 0
-142 6 0
-142 -53 0
-142 -32 0
-142 -23 0
-142 26 0
-142 15 0
-142 2 0
142 -11 85 -99 -6 53 32 23 -26 -15 -2 0
-143 -36 0
-143 62 0
-143 85 0
-143 19 0
-143 -59 0
-143 78 0
-143 -22 0
-143 -15 0
-143 76 0
-143 17 0
143 36 -62 -85 -19 59 -78 22 15 -76 -17 0
-144 58 0
-144 99 0
-144 61 0
-144 17 0
-144 52 0
-144 -75 0
-144 89 0
-144 -87 0
-144 -21 0
-144 54 0
144 -58 -99 -61 -17 -52 75 -89 87 21 -54 0
-145 -24 0
-145 -83 0
-145 -3 0
-145 100 0
-145 -41 0
-145 47 0
-145 19 0
-145 66 0
-145 39 0
-145 16 0
145 24 83 3 -100 41 -47 -19 -66 -39 -16 0
-146 34 0
-146 15 0
-146 42 0
-146 19 0
-146 11 0
-146 37 0
-146 12 0
-146 -17 0
-146 -67 0
-146 -22 0
146 -34 -15 -42 -19 -11 -37 -12 17 67 22 0
-147 49 0
-147 -95 0
-147 31 0
-147 51 0
-147 81 0
-147 10 0
-147 21 0
-147 -76 0
-147 -97 0
-147 24 0
147 -49 95 -31 -51 -81 -10 -21 76 97 -24 0
-148 27 0
-148 -69 0
-148 13 0
-148 -77 0
-148 -97 0
-148 42 0
-148 -39 0
-148 -49 0
-148 -18 0
-148 63 0
148 -27 69 -13 77 97 -42 39 49 18 -63 0
-149 -71 0
-149 8 0
-149 -68 0
-149 -72 0
-149 9 0
-149 -41 0
-149 -23 0
-149 -86 0
-149 -65 0
-149 -17 0
149 71 -8 68 72 -9 41 23 86 65 17 0
-150 -54 0
-150 -27 0
-150 29 0
-150 66 0
-150 -62 0
-150 58 0
-150 -53 0
-150 81 0
-150 -83 0
-150 -40 0
150 54 27 -29 -66 62 -58 53 -81 83 40 0
141 142 143 144 145 146 147 148 149 150 0
-151 -44 0
-151 38 0
-151 34 0
-151 68 0
-151 13 0
-151 -96 0
-151 42 0
-151 11 0
-151 -27 0
-151 4 0
151 44 -38 -34 -68 -13 96 -42 -11 27 -4 0
-152 -91 0
-152 -97 0
-152 3 0
-152 34 0
-152 33 0
-152 -74 0
-152 9 0
-152 40 0
-152 95 0
-152 -30 0
152 91 97 -3 -34 -33 74 -9 -40 -95 30 0
-153 66 0
-153 -69 0
-153 10 0
-153 -14 0
-153 62 0
-153 61 0
-153 53 0
-153 71 0
-153 -74 0
-153 -35 0
153 -66 69 -10 14 -62 -61 -53 -71 74 35 0
-154 -79 0
-154 62 0
-154 -66 0
-154 -65 0
-154 -51 0
-154 -94 0
-154 -27 0
-154 -82 0
-154 -39 0
-154 56 0
154 79 -62 66 65 51 94 27 82 39 -56 0
-155 10 0
-155 83 0
-155 -52 0
-155 -79 0
-155 -35 0
-155 65 0
-155 -55 0
-155 4 0
-155 46 0
-155 44 0
155 -10 -83 52 79 35 -65 55 -4 -46 -44 0
-156 95 0
-156 -46 0
-156 -8 0
-156 94 0
-156 40 0
-156 82 0
-156 -99 0
-156 -68 0
-156 89 0
-156 -72 0
156 -95 46 8 -94 -40 -82 99 68 -89 72 0
-157 -57 0
-157 -40 0
-157 -78 0
-157 -79 0
-157 -29 0
-157 97 0
-157 14 0
-157 52 0
-157 58 0
-157 70 0
157 57 40 78 79 29 -97 -14 -52 -58 -70 0
-158 90 0
-158 7 0
-158 13 0
-158 62 0
-158 -56 0
-158 29 0
-158 46 0
-158 53 0
-158 -68 0
-158 40 0
158 -90 -7 -13 -62 56 -29 -46 -53 68 -40 0
-159 75 0
-159 -49 0
-159 93 0
-159 -6 0
-159 -59 0
-159 -81 0
-159 -24 0
-159 -69 0
-159 -32 0
-159 57 0
159 -75 49 -93 6 59 81 24 69 32 -57 0
-160 -48 0
-160 31 0
-160 -41 0
-160 -75 0
-160 -68 0
-160 3 0
-160 24 0
-160 -71 0
-160 -8 0
-160 -42 0
160 48 -31 41 75 68 -3 -24 71 8 42 0
151 152 153 154 155 156 157 158 159 160 0
-161 37 0
-161 -12 0
-161 -41 0
-161 -48 0
-161 -50 0
-161 -14 0
-161 55 0
-161 6 0
-161 70 0
-161 -59 0
161 -37 12 41 48 50 14 -55 -6 -70 59 0
-162 -82 0
-162 -10 0
-162 58 0
-162 -36 0
-162 27 0
-162 20 0
-162 86 0
-162 76 0
-162 32 0
-162 37 0
162 82 10 -58 36 -27 -20 -86 -76 -32 -37 0
-163 87 0
-163 -79 0
-163 -6 0
-163 43 0
-163 -42 0
-163 -40 0
-163 19 0
-163 -60 0
-163 26 0
-163 -64 0
163 -87 79 6 -43 42 40 -19 60 -26 64 0
-164 -72 0
-164 -88 0
-164 -29 0
-164 -5 0
-164 -48 0
-164 86 0
-164 26 0
-164 -77 0
-164 59 0
-164 -90 0
164 72 88 29 5 48 -86 -26 77 -59 90 0
-165 20 0
-165 -2 0
-165 -71 0
-165 -74 0
-165 98 0
-165 76 0
-165 94 0
-165 -3 0
-165 -80 0
-165 23 0
165 -20 2 71 74 -98 -76 -94 3 80 -23 0
-166 -5 0
-166 -72 0
-166 -96 0
-166 8 0
-166 10 0
-166 75 0
-166 2 0
-166 59 0
-166 3 0
-166 58 0
166 5 72 96 -8 -10 -75 -2 -59 -3 -58 0
-167 -2 0
-167 -79 0
-167 84 0
-167 -46 0
-167 -5 0
-167 56 0
-167 -1 0
-167 19 0
-167 23 0
-167 68 0
167 2 79 -84 46 5 -56 1 -19 -23 -68 0
-168 -36 0
-168 -98 0
-168 54 0
-168 -86 0
-168 -79 0
-168 -48 0
-168 -13 0
-168 82 0
-168 -59 0
-168 -14 0
168 36 98 -54 86 79 48 13 -82 59 14 0
-169 30 0
-169 82 0
-169 41 0
-169 -23 0
-169 -1 0
-169 81 0
-169 65 0
-169 -6 0
-169 -70 0
-169 -40 0
169 -30 -82 -41 23 1 -81 -65 6 70 40 0
-170 29 0
-170 -54 0
-170 65 0
-170 87 0
-170 -83 0
-170 -4 0
-170 53 0
-170 -20 0
-170 -60 0
-170 -51 0
170 -29 54 -65 -87 83 4 -53 20 60 51 0
161 162 163 164 165 166 167 168 169 170 0
-171 60 0
-171 42 0
-171 -49 0
-171 -21 0
-171 71 0
-171 48 0
-171 57 0
-171 31 0
-171 15 0
-171 1 0
171 -60 -42 49 21 -71 -48 -57 -31 -15 -1 0
-172 28 0
-172 -57 0
-172 97 0
-172 81 0
-172 39 0
-172 -76 0
-172 -77 0
-172 90 0
-172 32 0
-172 38 0
172 -28 57 -97 -81 -39 76 77 -90 -32 -38 0
-173 -89 0
-173 -41 0
-173 85 0
-173 74 0
-173 -44 0
-173 99 0
-173 -83 0
-173 -25 0
-173 -8 0
-173 -24 0
173 89 41 -85 -74 44 -99 83 25 8 24 0
-174 28 0
-174 -78 0
-174 84 0
-174 82 0
-174 81 0
-174 -39 0
-174 -89 0
-174 91 0
-174 -36 0
-174 -30 0
174 -28 78 -84 -82 -81 39 89 -91 36 30 0
-175 -73 0
-175 -26 0
-175 50 0
-175 -88 0
-175 -90 0
-175 -78 0
-175 -5 0
-175 -92 0
-175 3 0
-175 99 0
175 73 26 -50 88 90 78 5 92 -3 -99 0
-176 71 0
-176 93 0
-176 60 0
-176 -34 0
-176 57 0
-176 -19 0
-176 -76 0
-176 61 0
-176 -49 0
-176 78 0
176 -71 -93 -60 34 -57 19 76 -61 49 -78 0
-177 -65 0
-177 84 0
-177 -67 0
-177 -23 0
-177 68 0
-177 32 0
-177 71 0
-177 -51 0
-177 20 0
-177 63 0
177 65 -84 67 23 -68 -32 -71 51 -20 -63 0
-178 -16 0
-178 -95 0
-178 -3 0
-178 25 0
-178 78 0
-178 10 0
-178 -32 0
-178 81 0
-178 5 0
-178 -80 0
178 16 95 3 -25 -78 -10 32 -81 -5 80 0
-179 -74 0
-179 25 0
-179 68 0
-179 -15 0
-179 98 0
-179 21 0
-179 3 0
-179 -52 0
-179 -81 0
-179 -76 0
179 74 -25 -68 15 -98 -21 -3 52 81 76 0
-180 -80 0
-180 -65 0
-180 3 0
-180 85 0
-180 25 0
-180 -86 0
-180 92 0
-180 2 0
-180 -95 0
-180 -63 0
180 80 65 -3 -85 -25 86 -92 -2 95 63 0
171 172 173 174 175 176 177 178 179 180 0
-181 43 0
-181 28 0
-181 -63 0
-181 -3 0
-181 45 0
-181 77 0
-181 -12 0
-181 97 0
-181 -94 0
-181 -92 0
181 -43 -28 63 3 -45 -77 12 -97 94 92 0
-182 -86 0
-182 -21 0
-182 23 0
-182 39 0
-182 42 0
-182 83 0
-182 -33 0
-182 14 0
-182 98 0
-182 68 0
182 86 21 -23 -39 -42 -83 33 -14 -98 -68 0
-183 -23 0
-183 86 0
-183 55 0
-183 35 0
-183 58 0
-183 41 0
-183 -59 0
-183 -100 0
-183 43 0
-183 -96 0
183 23 -86 -55 -35 -58 -41 59 100 -43 96 0
-184 -20 0
-184 76 0
-184 -48 0
-184 71 0
-184 83 0
-184 -82 0
-184 -90 0
-184 88 0
-184 -9 0
-184 55 0
184 20 -76 48 -71 -83 82 90 -88 9 -55 0
-185 97 0
-185 100 0
-185 -52 0
-185 -50 0
-185 76 0
-185 32 0
-185 -2 0
-185 56 0
-185 40 0
-185 -13 0
185 -97 -100 52 50 -76 -32 2 -56 -40 13 0
-186 -49 0
-186 53 0
-186 12 0
-186 32 0
-186 1 0
-186 8 0
-186 91 0
-186 66 0
-186 89 0
-186 43 0
186 49 -53 -12 -32 -1 -8 -91 -66 -89 -43 0
-187 100 0
-187 -20 0
-187 85 0
-187 76 0
-187 -61 0
-187 39 0
-187 -64 0
-187 92 0
-187 56 0
-187 1 0
187 -100 20 -85 -76 61 -39 64 -92 -56 -1 0
-188 23 0
-188 35 0
-188 92 0
-188 17 0
-188 -21 0
-188 -86 0
-188 -53 0
-188 -87 0
-188 41 0
-188 -59 0
188 -23 -35 -92 -17 21 86 53 87 -41 59 0
-189 -23 0
-189 33 0
-189 62 0
-189 -92 0
-189 -74 0
-189 -79 0
-189 93 0
-189 -76 0
-189 84 0
-189 99 0
189 23 -33 -62 92 74 79 -93 76 -84 -99 0
-190 100 0
-190 40 0
-190 -97 0
-190 -45 0
-190 -49 0
-190 -87 0
-190 58 0
-190 76 0
-190 48 0
-190 -29 0
190 -100 -40 97 45 49 87 -58 -76 -48 29 0
181 182 183 184 185 186 187 188 189 190 0
-191 -66 0
-191 54 0
-191 48 0
-191 -73 0
-191 5 0
-191 -41 0
-191 58 0
-191 -49 0
-191 40 0
-191 -55 0
191 66 -54 -48 73 -5 41 -58 49 -40 55 0
-192 -21 0
-192 -61 0
-192 -60 0
-192 30 0
-192 71 0
-192 -50 0
-192 26 0
-192 6 0
-192 -24 0
-192 83 0
192 21 61 60 -30 -71 50 -26 -6 24 -83 0
-193 -10 0
-193 28 0
-193 -88 0
-193 -96 0
-193 13 0
-193 30 0
-193 -67 0
-193 45 0
-193 55 0
-193 92 0
193 10 -28 88 96 -13 -30 67 -45 -55 -92 0
-194 -95 0
-194 98 0
-194 77 0
-194 -48 0
-194 74 0
-194 16 0
-194 -4 0
-194 -62 0
-194 36 0
-194 -11 0
194 95 -98 -77 48 -74 -16 4 62 -36 11 0
-195 84 0
-195 -25 0
-195 -48 0
-195 34 0
-195 -21 0
-195 8 0
-195 40 0
-195 57 0
-195 -29 0
-195 -5 0
195 -84 25 48 -34 21 -8 -40 -57 29 5 0
-196 -39 0
-196 -97 0
-196 35 0
-196 41 0
-196 10 0
-196 83 0
-196 -21 0
-196 54 0
-196 -8 0
-196 -80 0
196 39 97 -35 -41 -10 -83 21 -54 8 80 0
-197 71 0
-197 -75 0
-197 -67 0
-197 83 0
-197 -64 0
-197 70 0
-197 -81 0
-197 -22 0
-197 36 0
-197 97 0
197 -71 75 67 -83 64 -70 81 22 -36 -97 0
-198 37 0
-198 -63 0
-198 -84 0
-198 -60 0
-198 -9 0
-198 -21 0
-198 27 0
-198 88 0
-198 -86 0
-198 4 0
198 -37 63 84 60 9 21 -27 -88 86 -4 0
-199 -44 0
-199 -71 0
-199 96 0
-199 -59 0
-199 -45 0
-199 -68 0
-199 85 0
-199 49 0
-199 53 0
-199 -99 0
199 44 71 -96 59 45 68 -85 -49 -53 99 0
-200 -2 0
-200 -87 0
-200 46 0
-200 71 0
-200 85 0
-200 -91 0
-200 -24 0
-200 -78 0
-200 79 0
-200 8 0
200 2 87 -46 -71 -85 91 24 78 -79 -8 0
191 192 193 194 195 196 197 198 199 200 0
